
Gurobi 5.6.0 (linux64) logging started Mon Feb 24 19:51:29 2014


Gurobi 5.6.0 (linux64) logging started Mon Feb 24 19:52:31 2014


Gurobi 5.6.0 (linux64) logging started Mon Feb 24 19:53:10 2014


Gurobi 5.6.0 (linux64) logging started Mon Feb 24 19:53:47 2014


Gurobi 5.6.0 (linux64) logging started Mon Feb 24 19:53:51 2014


Gurobi 5.6.0 (linux64) logging started Mon Feb 24 19:54:03 2014


Gurobi 5.6.0 (linux64) logging started Mon Feb 24 19:54:19 2014


Gurobi 5.6.0 (linux64) logging started Mon Feb 24 19:55:24 2014


Gurobi 5.6.0 (linux64) logging started Mon Feb 24 19:55:37 2014

